50
    55    70     3    79    52    59    50    65     4    56    32    73    68    68    15    81    44    70    54    85    70     2    98    95    27    69    83    36    34    43    38    50    52    60    82    94    84    23    23    42    71   100    63    80    97    24    92    14    85    96
    10     8     2     6    10     6     2     9     4     1     7     3     7     9     4     4     8     6     9     4     5     6     3    10     2     4     6     2     2     6     5     5     1     4     3     1     9     3     2     4     7     6     9     3     6     7    10     3     3     8
   236   138    71     0   286     0   168     0     0     0    65    96     0   273     0     0   164   161    65     0    92     0   110   251   189     0     0     0     0     0     0    37   225     0     0   151     0     0     0     0     0     0     0   110    12     0     0     0     0     0
